12
0   42  87  15  63  28  91  54  37  76  22  49
42   0  33  58  71  19  84  67  25  40  55  31
87  33   0  46  29  72  38  61  53  27  64  44
15  58  46   0  35  81  57  23  68  39  50  62
63  71  29  35   0  47  73  56  41  88  26  33
28  19  72  81  47   0  59  34  77  52  48  66
91  84  38  57  73  59   0  85  69  36  78  90
54  67  61  23  56  34  85   0  32  71  43  27
37  25  53  68  41  77  69  32   0  60  28  46
76  40  27  39  88  52  36  71  60   0  55  63
22  55  64  50  26  48  78  43  28  55   0  35
49  31  44  62  33  66  90  27  46  63  35   0